100
32
28
32
3
7
6
14
32
16
15
21
32
31
21
20
13
29
14
6
8
8
6
21
12
2
27
14
16
10
10
11
18
1
1
1
4
3
4
4
3
1
2
19
3
4
1
19
5
17
1
1
1
3
11
1
18
4
1
3
1
17
4
2
1
6
4
17
4
5
17
1
4
1
18
7
2
2
1
7
6
1
22
17
1
3
1
4
3
1
5
2
4
2
1
1
2
1
2
2
2
2